123 5
10 10 10 10 10 

0 0 0 0 0 0 1 2 
0 0 0 0 0 0 1 3 
1 0 1 0 0 0 2 8 4 
7 0 7 0 0 0 1 5 
3 0 6 0 0 0 2 12 6 
3 0 4 0 0 0 1 7 
1 0 5 0 0 0 2 10 9 
5 0 7 0 0 0 1 9 
6 0 4 0 0 0 1 11 
10 0 4 0 0 0 1 11 
1 0 5 0 0 0 1 13 
3 0 7 0 0 0 1 13 
0 0 0 0 0 0 1 14 
0 0 0 0 0 0 2 15 16 
1 0 1 0 0 0 1 17 
3 0 9 0 0 0 1 17 
1 0 4 0 0 0 2 19 18 
1 0 5 0 0 0 2 22 20 
10 0 8 0 0 0 1 20 
3 0 3 0 0 0 1 21 
7 0 5 0 0 0 1 23 
1 0 6 0 0 0 1 23 
3 0 4 0 0 0 1 24 
4 0 5 0 0 0 1 25 
0 0 0 0 0 0 1 26 
0 0 0 0 0 0 2 27 28 
5 0 0 0 0 1 1 29 
4 0 0 0 0 6 1 29 
5 0 0 0 0 10 1 30 
4 0 0 0 0 4 2 33 31 
9 0 0 0 0 2 1 32 
9 0 0 0 0 6 2 36 34 
10 0 0 0 0 2 2 36 34 
6 0 0 0 0 7 1 35 
7 0 0 0 0 4 1 37 
1 0 0 0 0 8 1 37 
0 0 0 0 0 0 2 38 50 
0 0 0 0 0 0 1 39 
3 0 0 0 3 0 2 43 40 
4 0 0 0 2 0 1 41 
4 0 0 0 2 0 1 42 
4 0 0 0 9 0 3 47 44 66 
8 0 0 0 5 0 2 48 46 
9 0 0 0 5 0 1 45 
3 0 0 0 6 0 1 46 
9 0 0 0 10 0 1 49 
4 0 0 0 5 0 1 49 
4 0 0 0 3 0 1 49 
0 0 0 0 0 0 1 62 
0 0 0 0 0 0 2 51 54 
6 0 0 0 0 1 2 58 52 
10 0 0 0 0 3 1 53 
8 0 0 0 0 4 2 60 55 
4 0 0 0 0 5 2 60 58 
2 0 0 0 0 5 1 56 
2 0 0 0 0 6 1 57 
3 0 0 0 0 9 1 59 
8 0 0 0 0 9 1 59 
9 0 0 0 0 4 1 61 
10 0 0 0 0 4 1 61 
0 0 0 0 0 0 1 62 
0 0 0 0 0 0 5 63 75 87 99 111 
0 0 0 0 0 0 3 64 69 71 
4 0 0 0 0 1 1 65 
5 0 0 0 0 6 2 73 66 
9 0 0 0 0 4 1 67 
2 0 0 0 0 4 1 68 
2 0 0 0 0 7 1 70 
5 0 0 0 0 7 1 70 
3 0 0 0 0 3 1 72 
5 0 0 0 0 3 1 73 
7 0 0 0 0 6 1 74 
3 0 0 0 0 9 1 74 
0 0 0 0 0 0 1 123 
0 0 0 0 0 0 2 76 77 
4 0 0 0 1 0 2 79 78 
3 0 0 0 5 0 2 79 78 
2 0 0 0 6 0 1 80 
6 0 0 0 6 0 1 80 
10 0 0 0 4 0 1 81 
2 0 0 0 8 0 1 82 
4 0 0 0 5 0 2 84 83 
3 0 0 0 8 0 1 85 
1 0 0 0 3 0 1 85 
3 0 0 0 4 0 1 86 
0 0 0 0 0 0 1 123 
0 0 0 0 0 0 4 88 91 93 97 
7 0 0 0 0 1 1 89 
1 0 0 0 0 3 1 90 
10 0 0 0 0 5 1 92 
9 0 0 0 0 2 1 92 
9 0 0 0 0 3 1 94 
4 0 0 0 0 7 1 94 
8 0 0 0 0 4 1 95 
9 0 0 0 0 7 1 96 
4 0 0 0 0 9 1 98 
5 0 0 0 0 9 1 98 
0 0 0 0 0 0 1 123 
0 0 0 0 0 0 2 100 106 
10 0 1 0 0 0 2 109 101 
10 0 6 0 0 0 1 102 
6 0 4 0 0 0 1 103 
7 0 5 0 0 0 2 108 104 
7 0 2 0 0 0 1 105 
1 0 4 0 0 0 1 107 
5 0 6 0 0 0 1 109 
1 0 6 0 0 0 1 110 
7 0 7 0 0 0 1 110 
9 0 9 0 0 0 1 110 
0 0 0 0 0 0 1 123 
0 0 0 0 0 0 2 112 118 
3 0 0 0 1 0 1 113 
2 0 0 0 4 0 3 121 120 114 
4 0 0 0 7 0 1 115 
2 0 0 0 6 0 1 116 
8 0 0 0 6 0 1 117 
10 0 0 0 2 0 1 119 
9 0 0 0 4 0 1 119 
2 0 0 0 6 0 1 122 
8 0 0 0 7 0 1 122 
3 0 0 0 7 0 1 122 
0 0 0 0 0 0 1 123 
0 0 0 0 0 0 0 
